instances/in_60_30_10_1.lp
#const n = 60.
#const k = 30.
#const h = 10.
tile(1,28,16).
tile(2,7,4).
tile(3,25,7).
tile(4,11,18).
tile(5,13,23).
tile(6,17,4).
tile(7,16,5).
tile(8,29,6).
tile(9,5,12).
tile(10,3,25).
tile(11,4,17).
tile(12,13,26).
tile(13,5,7).
tile(14,25,14).
tile(15,23,21).
tile(16,9,11).
tile(17,8,16).
tile(18,13,28).
tile(19,10,17).
tile(20,8,9).
tile(21,10,23).
tile(22,17,19).
tile(23,15,18).
tile(24,21,4).
tile(25,9,24).
tile(26,17,23).
tile(27,8,12).
tile(28,10,26).
tile(29,18,7).
tile(30,20,27).
tile(31,7,30).
tile(32,24,8).
tile(33,9,25).
tile(34,5,25).
tile(35,22,12).
tile(36,25,14).
tile(37,15,20).
tile(38,26,22).
tile(39,21,18).
tile(40,7,4).
tile(41,18,9).
tile(42,30,5).
tile(43,2,21).
tile(44,23,5).
tile(45,15,13).
tile(46,20,19).
tile(47,22,4).
tile(48,25,28).
tile(49,24,9).
tile(50,21,6).
tile(51,6,17).
tile(52,26,5).
tile(53,1,29).
tile(54,14,26).
tile(55,22,26).
tile(56,2,24).
tile(57,6,19).
tile(58,20,27).
tile(59,22,22).
tile(60,14,30).
