minizinc/input/in_60_30_10_1.dzn
n = 60;
k = 30;
h = 10;
tiles = array2d(1..n, 1..2,
[ 28,16
, 7,4
, 25,7
, 11,18
, 13,23
, 17,4
, 16,5
, 29,6
, 5,12
, 3,25
, 4,17
, 13,26
, 5,7
, 25,14
, 23,21
, 9,11
, 8,16
, 13,28
, 10,17
, 8,9
, 10,23
, 17,19
, 15,18
, 21,4
, 9,24
, 17,23
, 8,12
, 10,26
, 18,7
, 20,27
, 7,30
, 24,8
, 9,25
, 5,25
, 22,12
, 25,14
, 15,20
, 26,22
, 21,18
, 7,4
, 18,9
, 30,5
, 2,21
, 23,5
, 15,13
, 20,19
, 22,4
, 25,28
, 24,9
, 21,6
, 6,17
, 26,5
, 1,29
, 14,26
, 22,26
, 2,24
, 6,19
, 20,27
, 22,22
, 14,30
]);